Traveling Salesman Problem/TSP_generados/Aleatorio1621103561_16.tsp
NAME: Aleatorio1621103561_16.tsp
COMMENT: Randomly generated scenario
TYPE: TSP
DIMENSION: 16
EDGE_WEIGHT_TYPE: ATT
NODE_COORD_SECTION
1 22.9 13.07
2 25.05 2.55
3 18.92 20.1
4 22.64 46.64
5 35.59 42.3
6 34.38 37.18
7 25.87 40.35
8 25.64 11.9
9 10.58 30.44
10 43.39 33.97
11 44.25 35.0
12 38.24 18.11
13 25.17 1.53
14 24.45 23.99
15 3.67 28.51
16 15.76 46.82
