Traveling Salesman Problem/TSP_generados/Aleatorio1621103561_16.opt.tour
NAME: Aleatorio1621103561_16.opt.tour
COMMENT: Optimal solution for Aleatorio1621103561_16 (150.9917322982015)
TYPE: TOUR
DIMENSION: 16
TOUR_SECTION
1 3 14 9 15 16 4 7 5 6 11 10 12 13 2 8
-1
EOF
